p cnf 7230 16
-385 -2270 -2864 0
-383 -2272 -2862 0
-1598 -2250 -2860 0
-1596 -2154 -2858 0
385 -2865 0
383 -2863 0
1598 -2861 0
1596 -2859 0
2864 2865 0
2862 2863 0
2860 2861 0
2858 2859 0
2270 -2865 0
2272 -2863 0
2250 -2861 0
2154 -2859 0
